benchmarks_CP/INST_36x36/30/inst36x36_30_4.dzn
S=6;
start=[|
-1,	1,	-1,	21,	-1,	-1,	-1,	2,	7,	-1,	-1,	-1,	-1,	-1,	-1,	-1,	-1,	-1,	-1,	-1,	-1,	10,	-1,	-1,	-1,	8,	17,	-1,	12,	-1,	-1,	32,	-1,	-1,	14,	-1|
6,	-1,	-1,	-1,	-1,	28,	20,	-1,	-1,	-1,	-1,	1,	-1,	-1,	-1,	-1,	12,	11,	-1,	-1,	-1,	-1,	4,	33,	-1,	-1,	35,	-1,	-1,	23,	-1,	-1,	-1,	31,	-1,	36|
-1,	-1,	7,	8,	-1,	-1,	-1,	5,	-1,	32,	33,	-1,	-1,	1,	-1,	-1,	-1,	-1,	17,	-1,	-1,	2,	-1,	-1,	-1,	-1,	-1,	-1,	3,	-1,	9,	-1,	10,	-1,	-1,	-1|
-1,	-1,	-1,	-1,	-1,	-1,	17,	-1,	23,	-1,	-1,	-1,	36,	-1,	16,	-1,	32,	10,	13,	-1,	-1,	-1,	-1,	-1,	-1,	-1,	19,	-1,	-1,	-1,	-1,	22,	1,	-1,	-1,	-1|
-1,	-1,	-1,	-1,	-1,	-1,	-1,	-1,	30,	-1,	-1,	-1,	-1,	-1,	2,	-1,	-1,	-1,	-1,	-1,	-1,	-1,	12,	-1,	-1,	-1,	-1,	-1,	11,	-1,	5,	-1,	6,	-1,	8,	-1|
11,	-1,	10,	-1,	32,	30,	-1,	-1,	-1,	31,	16,	-1,	-1,	20,	28,	-1,	-1,	-1,	19,	14,	27,	15,	-1,	23,	-1,	1,	25,	-1,	-1,	2,	-1,	-1,	-1,	-1,	-1,	-1|
-1,	-1,	-1,	-1,	-1,	-1,	-1,	8,	3,	-1,	-1,	-1,	-1,	-1,	-1,	-1,	9,	-1,	-1,	-1,	-1,	-1,	35,	-1,	-1,	-1,	-1,	25,	-1,	22,	-1,	-1,	-1,	-1,	-1,	-1|
13,	-1,	8,	-1,	19,	25,	-1,	-1,	-1,	-1,	-1,	14,	-1,	24,	-1,	-1,	-1,	-1,	9,	-1,	-1,	-1,	11,	6,	-1,	-1,	-1,	-1,	-1,	-1,	20,	-1,	-1,	-1,	26,	-1|
-1,	-1,	-1,	-1,	-1,	23,	-1,	-1,	-1,	-1,	-1,	-1,	-1,	-1,	4,	-1,	-1,	22,	-1,	-1,	24,	-1,	-1,	13,	36,	-1,	26,	-1,	6,	-1,	-1,	1,	17,	-1,	-1,	32|
-1,	18,	28,	-1,	-1,	-1,	33,	-1,	20,	-1,	4,	-1,	10,	-1,	-1,	-1,	-1,	-1,	-1,	16,	-1,	31,	-1,	-1,	-1,	-1,	-1,	-1,	17,	27,	-1,	-1,	19,	-1,	5,	7|
-1,	-1,	-1,	-1,	-1,	-1,	-1,	-1,	-1,	-1,	26,	-1,	23,	17,	32,	-1,	-1,	-1,	5,	-1,	-1,	-1,	22,	-1,	-1,	7,	-1,	-1,	-1,	-1,	-1,	2,	4,	-1,	-1,	8|
-1,	5,	-1,	-1,	-1,	-1,	-1,	30,	28,	23,	-1,	32,	-1,	35,	-1,	8,	-1,	-1,	-1,	17,	-1,	19,	-1,	27,	-1,	-1,	20,	-1,	-1,	-1,	-1,	-1,	-1,	-1,	-1,	-1|
-1,	28,	-1,	-1,	-1,	-1,	-1,	-1,	-1,	-1,	-1,	-1,	-1,	-1,	-1,	-1,	-1,	-1,	-1,	-1,	-1,	-1,	-1,	-1,	-1,	-1,	8,	-1,	-1,	-1,	-1,	-1,	-1,	-1,	-1,	19|
-1,	26,	-1,	-1,	-1,	-1,	7,	-1,	-1,	-1,	2,	-1,	-1,	-1,	-1,	6,	-1,	-1,	-1,	-1,	-1,	-1,	31,	-1,	-1,	-1,	-1,	-1,	-1,	-1,	22,	-1,	-1,	-1,	-1,	-1|
-1,	-1,	2,	-1,	-1,	-1,	-1,	-1,	-1,	35,	-1,	-1,	16,	-1,	9,	-1,	-1,	-1,	7,	-1,	22,	-1,	-1,	-1,	-1,	34,	-1,	-1,	-1,	29,	21,	-1,	-1,	6,	-1,	-1|
-1,	-1,	-1,	13,	-1,	-1,	16,	34,	-1,	-1,	-1,	-1,	-1,	-1,	19,	-1,	-1,	-1,	18,	-1,	-1,	-1,	-1,	12,	-1,	-1,	-1,	-1,	-1,	-1,	8,	-1,	-1,	20,	15,	-1|
-1,	-1,	-1,	-1,	-1,	-1,	-1,	19,	-1,	-1,	-1,	-1,	26,	-1,	-1,	-1,	21,	24,	-1,	-1,	-1,	6,	16,	-1,	35,	-1,	-1,	-1,	9,	-1,	-1,	7,	-1,	18,	-1,	4|
-1,	-1,	19,	-1,	-1,	-1,	-1,	-1,	22,	8,	-1,	27,	31,	-1,	-1,	5,	-1,	-1,	-1,	24,	1,	33,	-1,	-1,	21,	10,	-1,	-1,	-1,	-1,	-1,	16,	29,	36,	-1,	-1|
-1,	-1,	-1,	34,	35,	16,	-1,	-1,	18,	-1,	-1,	29,	-1,	-1,	-1,	-1,	-1,	6,	-1,	-1,	-1,	-1,	-1,	-1,	-1,	12,	-1,	-1,	30,	-1,	32,	11,	24,	-1,	3,	-1|
5,	-1,	-1,	11,	21,	1,	14,	-1,	-1,	-1,	-1,	34,	-1,	-1,	-1,	-1,	-1,	-1,	-1,	-1,	-1,	-1,	-1,	24,	26,	-1,	-1,	-1,	-1,	-1,	-1,	-1,	-1,	-1,	-1,	-1|
10,	-1,	25,	-1,	-1,	-1,	-1,	-1,	31,	-1,	-1,	-1,	-1,	-1,	-1,	-1,	-1,	-1,	-1,	13,	-1,	23,	-1,	-1,	24,	-1,	14,	-1,	-1,	-1,	-1,	26,	-1,	16,	20,	-1|
28,	7,	-1,	-1,	-1,	-1,	-1,	-1,	-1,	33,	19,	2,	-1,	18,	-1,	-1,	-1,	-1,	-1,	-1,	-1,	-1,	-1,	30,	-1,	16,	-1,	-1,	8,	-1,	10,	15,	-1,	-1,	-1,	-1|
-1,	13,	-1,	30,	-1,	19,	-1,	17,	-1,	12,	20,	-1,	-1,	-1,	-1,	-1,	33,	-1,	-1,	27,	-1,	9,	-1,	-1,	-1,	-1,	-1,	3,	2,	-1,	34,	-1,	-1,	-1,	-1,	-1|
-1,	32,	-1,	20,	-1,	-1,	21,	-1,	-1,	10,	8,	-1,	9,	-1,	-1,	-1,	30,	-1,	-1,	-1,	28,	35,	-1,	7,	-1,	22,	-1,	-1,	4,	31,	-1,	36,	18,	-1,	-1,	-1|
12,	-1,	9,	-1,	-1,	-1,	5,	-1,	-1,	-1,	-1,	-1,	-1,	-1,	-1,	28,	-1,	-1,	30,	-1,	-1,	-1,	-1,	-1,	-1,	-1,	-1,	-1,	-1,	-1,	36,	-1,	14,	-1,	-1,	-1|
19,	-1,	36,	27,	8,	20,	-1,	-1,	-1,	-1,	24,	-1,	35,	-1,	-1,	-1,	29,	-1,	-1,	-1,	15,	22,	-1,	-1,	-1,	30,	9,	17,	-1,	-1,	-1,	-1,	23,	-1,	12,	-1|
3,	17,	-1,	28,	30,	-1,	-1,	-1,	-1,	-1,	-1,	33,	22,	16,	-1,	-1,	-1,	-1,	27,	-1,	29,	-1,	-1,	-1,	-1,	-1,	-1,	4,	-1,	20,	-1,	-1,	11,	-1,	-1,	-1|
-1,	-1,	-1,	-1,	13,	-1,	-1,	-1,	-1,	-1,	-1,	22,	-1,	-1,	-1,	4,	17,	20,	32,	19,	-1,	-1,	-1,	1,	-1,	-1,	6,	-1,	-1,	25,	-1,	-1,	28,	2,	-1,	-1|
-1,	-1,	-1,	5,	-1,	31,	-1,	-1,	10,	-1,	-1,	20,	-1,	32,	1,	30,	-1,	-1,	24,	-1,	-1,	-1,	-1,	3,	2,	-1,	27,	-1,	-1,	-1,	-1,	35,	-1,	22,	19,	9|
-1,	-1,	34,	-1,	7,	-1,	-1,	9,	-1,	19,	-1,	-1,	-1,	-1,	-1,	-1,	-1,	3,	-1,	-1,	20,	-1,	17,	8,	-1,	-1,	31,	-1,	13,	1,	4,	-1,	5,	-1,	-1,	15|
4,	-1,	-1,	-1,	-1,	-1,	-1,	-1,	-1,	-1,	-1,	35,	-1,	3,	-1,	-1,	16,	-1,	-1,	6,	30,	-1,	-1,	-1,	-1,	27,	-1,	-1,	-1,	24,	-1,	25,	20,	17,	-1,	11|
20,	33,	-1,	-1,	12,	-1,	-1,	-1,	-1,	-1,	-1,	5,	-1,	-1,	-1,	-1,	-1,	-1,	31,	32,	-1,	7,	-1,	-1,	-1,	-1,	36,	-1,	-1,	-1,	-1,	-1,	-1,	-1,	10,	29|
8,	-1,	-1,	-1,	-1,	-1,	-1,	-1,	33,	-1,	34,	7,	-1,	15,	10,	-1,	-1,	-1,	16,	-1,	-1,	-1,	-1,	-1,	-1,	11,	-1,	-1,	-1,	-1,	-1,	-1,	-1,	-1,	-1,	-1|
29,	-1,	30,	-1,	-1,	-1,	-1,	12,	-1,	-1,	-1,	-1,	-1,	-1,	-1,	32,	-1,	-1,	-1,	-1,	34,	-1,	-1,	4,	-1,	-1,	2,	6,	23,	3,	-1,	-1,	-1,	7,	-1,	16|
-1,	16,	-1,	-1,	-1,	-1,	-1,	-1,	-1,	28,	-1,	-1,	-1,	-1,	-1,	11,	-1,	-1,	-1,	-1,	35,	-1,	-1,	-1,	-1,	-1,	22,	-1,	14,	-1,	23,	6,	9,	-1,	-1,	-1|
32,	-1,	-1,	-1,	17,	-1,	-1,	-1,	16,	-1,	-1,	-1,	-1,	-1,	-1,	20,	7,	9,	-1,	-1,	-1,	-1,	-1,	2,	5,	33,	-1,	-1,	-1,	-1,	31,	19,	-1,	-1,	4,	30|];
